unknown
(model
; cardinality of BoundSet is 2
(declare-sort BoundSet 0)
; rep: @uc_BoundSet_0
; rep: @uc_BoundSet_1
; cardinality of UnboundSet is 1
(declare-sort UnboundSet 0)
(declare-fun groundTerm_3 () UnboundSet)
(define-fun IsRuns ((BOUND_VARIABLE_512 BoundSet)) Bool true)
(define-fun IsOnBike ((BOUND_VARIABLE_512 BoundSet)) Bool true)
(define-fun IsRed ((BOUND_VARIABLE_512 BoundSet)) Bool true)
(define-fun IsClosesGap ((BOUND_VARIABLE_524 BoundSet) (BOUND_VARIABLE_525 BoundSet)) Bool false)
(define-fun IsInFrontOf ((BOUND_VARIABLE_524 BoundSet) (BOUND_VARIABLE_525 BoundSet)) Bool false)
)
unsat
(error "Cannot get model unless immediately preceded by SAT/NOT_ENTAILED or UNKNOWN response.")
